Solver command line: ['C:\\gurobi1002\\win64\\bin\\gurobi.bat']

Set parameter Username
Academic license - for non-commercial use only - expires 2024-08-20
Read LP format model from file C:\Users\mhafeman\AppData\Local\Temp\tmprmn33geb.pyomo.lp
Reading time = 1.72 seconds
obj: 385441 rows, 332879 columns, 893506 nonzeros
Gurobi Optimizer version 10.0.2 build v10.0.2rc0 (win64)

CPU model: AMD Ryzen 7 3800X 8-Core Processor, instruction set [SSE2|AVX|AVX2]
Thread count: 8 physical cores, 16 logical processors, using up to 16 threads

Optimize a model with 385441 rows, 332879 columns and 893506 nonzeros
Model fingerprint: 0x3d66d624
Model has 8759 quadratic constraints
Variable types: 254040 continuous, 78839 integer (61320 binary)
Coefficient statistics:
  Matrix range     [1e-04, 3e+02]
  QMatrix range    [1e+00, 1e+00]
  Objective range  [1e-02, 3e+02]
  Bounds range     [1e+00, 3e+00]
  RHS range        [1e-03, 3e+03]
Presolve removed 281031 rows and 224393 columns
Presolve time: 1.30s
Presolved: 104410 rows, 108486 columns, 267366 nonzeros
Variable types: 63003 continuous, 45483 integer (45483 binary)
Found heuristic solution: objective -1.16930e+07
Deterministic concurrent LP optimizer: primal and dual simplex
Showing first log only...

Concurrent spin time: 0.00s

Solved with dual simplex

Root relaxation: objective -2.897650e+07, 20662 iterations, 0.56 seconds (0.59 work units)

    Nodes    |    Current Node    |     Objective Bounds      |     Work
 Expl Unexpl |  Obj  Depth IntInf | Incumbent    BestBd   Gap | It/Node Time

     0     0 -2.898e+07    0  162 -1.169e+07 -2.898e+07   148%     -    3s
H    0     0                    -2.89759e+07 -2.898e+07  0.00%     -    3s

Explored 1 nodes (39360 simplex iterations) in 3.63 seconds (4.14 work units)
Thread count was 16 (of 16 available processors)

Solution count 2: -2.89759e+07 -1.1693e+07 

Optimal solution found (tolerance 1.00e-04)
Best objective -2.897588605825e+07, best bound -2.897649621310e+07, gap 0.0021%

